; ./prepared/seahorn/./sv_comp_flat_small/array-examples/standard_two_index_06_true-unreach-call.c.flat_000.smt2
(set-logic HORN)


(declare-fun |main_1| ( Int Int Int Int Int Int Int Int ) Bool)

(assert
  (forall ( (A Int) (B Int) (C Int) (D Int) (E Int) (F Int) (G Int) (v_7 Int) ) 
    (=>
      (and
        (and true (= 0 v_7))
      )
      (main_1 v_7 B C D E F G A)
    )
  )
)
(assert
  (forall ( (A Int) (B Int) (C Int) (D Int) (E Int) (F Int) (G Int) (H Int) (I Int) (J Int) (K Int) (L Bool) (M Int) (N Int) (O Bool) (P Bool) (Q Int) (R Int) (S Int) (T Int) (v_20 Int) (v_21 Int) ) 
    (=>
      (and
        (main_1 v_20 F G H I J K C)
        (and (= 0 v_20)
     (= A M)
     (or (= E S) (not P) (not L))
     (or (= D Q) (not P) (not L))
     (or (= T R) (not P) (not L))
     (or (= S 1) (not P) (not L))
     (or (= R 0) (not P) (not L))
     (or (= Q C) (not P) (not L))
     (or (not O) (and L P))
     (= O true)
     (= B N)
     (= 1 v_21))
      )
      (main_1 v_21 T N E I J M C)
    )
  )
)
(assert
  (forall ( (A Int) (B Int) (C Bool) (D Int) (E Int) (F Int) (G Int) (H Int) (I Int) (J Int) (K Int) (L Int) (M Bool) (N Int) (O Int) (P Int) (Q Int) (R Int) (S Bool) (T Bool) (U Int) (V Int) (W Bool) (X Bool) (v_24 Int) (v_25 Int) ) 
    (=>
      (and
        (main_1 v_24 G H I J K L D)
        (let ((a!1 (or (not S) (= A (+ H (* 4 R))))))
  (and (= 1 v_24)
       (= B (+ L (* 4 G)))
       (= R (+ 6 I))
       (or C (not T) (not M))
       (or (= P R) (not S) (not X))
       (or (= Q O) (not S) (not X))
       (or (= O U) (not S) (not X))
       (or (= N V) (not S) (not X))
       (or (= F P) (not S) (not X))
       (or (= E N) (not S) (not X))
       (or (not W) (and S X))
       a!1
       (or (not S) (= U (+ 1 G)))
       (or (not S) (and T M))
       (= W true)
       (not (= (<= 10000 R) C))
       (= 1 v_25)))
      )
      (main_1 v_25 Q H F J K L D)
    )
  )
)
(assert
  (forall ( (A Int) (B Int) (C Int) (D Bool) (E Int) (F Int) (G Int) (H Int) (I Int) (J Int) (K Int) (L Bool) (M Int) (N Bool) (O Bool) (P Bool) (Q Bool) (R Int) (S Int) (v_19 Int) (v_20 Int) ) 
    (=>
      (and
        (main_1 v_19 F G H I J K E)
        (and (= 1 v_19)
     (= C (+ K (* 4 F)))
     (= M (+ 6 H))
     (or (not D) (not O) (not L))
     (or (= B S) (not N) (not Q))
     (or (= A R) (not N) (not Q))
     (or (= S 1) (not N) (not Q))
     (or (= R 0) (not N) (not Q))
     (or (not P) (and N Q))
     (or (not N) (and O L))
     (= P true)
     (not (= (<= 10000 M) D))
     (= 2 v_20))
      )
      (main_1 v_20 F G H B A K E)
    )
  )
)
(assert
  (forall ( (A Bool) (B Int) (C Int) (D Int) (E Int) (F Int) (G Int) (H Bool) (I Bool) (J Int) (K Int) (L Int) (M Int) (N Int) (O Int) (P Int) (Q Int) (R Int) (S Bool) (T Int) (U Int) (V Int) (W Int) (X Bool) (Y Bool) (v_25 Int) (v_26 Int) ) 
    (=>
      (and
        (main_1 v_25 M N O P Q R L)
        (and (= 2 v_25)
     (= H (= C G))
     (not (= H I))
     (= D (* 6 W))
     (= E (+ 1 D))
     (= B (+ R (* 4 W)))
     (= F (+ N (* 4 E)))
     (= W (+ 1 Q))
     (= V (+ 6 P))
     (or (not Y) (not S) (= K U))
     (or (not Y) (not S) (= J T))
     (or (not Y) (not S) (= U V))
     (or (not Y) (not S) (= T W))
     (or (not I) (not Y) (not S))
     (or (not X) (and Y S))
     (= A true)
     (= X true)
     (not (= (<= 10000 V) A))
     (= 2 v_26))
      )
      (main_1 v_26 M N O K J R L)
    )
  )
)
(assert
  (forall ( (A Bool) (B Int) (C Int) (D Int) (E Int) (F Int) (G Int) (H Bool) (I Bool) (J Int) (K Int) (L Int) (M Int) (N Int) (O Int) (P Int) (Q Bool) (R Int) (S Int) (T Bool) (U Bool) (v_21 Int) (v_22 Int) ) 
    (=>
      (and
        (main_1 v_21 K L M N O P J)
        (and (= 2 v_21)
     (= H (= C G))
     (not (= H I))
     (= F (+ L (* 4 E)))
     (= E (+ 1 D))
     (= D (* 6 S))
     (= B (+ P (* 4 S)))
     (= S (+ 1 O))
     (= R (+ 6 N))
     (or I (not Q) (not U))
     (or (not T) (and Q U))
     (= A true)
     (= T true)
     (not (= (<= 10000 R) A))
     (= 3 v_22))
      )
      (main_1 v_22 K L M N O P J)
    )
  )
)
(assert
  (forall ( (A Int) (B Int) (C Int) (D Int) (E Int) (F Int) (G Int) (v_7 Int) ) 
    (=>
      (and
        (main_1 v_7 B C D E F G A)
        (= 3 v_7)
      )
      false
    )
  )
)

(check-sat)
(exit)
